48868 245 300126 2812467 54482 0.94
48944 180 220501 1990885 55244 0.96
48966 246 301351 2687643 55582 0.96
48980 246 301351 2670056 55980 0.98
49014 246 301351 2669549 54774 1
49114 246 301351 2669546 56502 0.96
48894 151 184976 1664997 55472 0.9
48930 169 207026 1859629 55802 0.8
49058 162 198451 1778945 54844 1
48926 246 301351 2673431 56092 0.94
